     Program PWSCF v.5.0.2 (svn rev. 9656) starts on 13Oct2013 at 11:30:41

     Current dimensions of program PWSCF are:
     Max number of different atomic species (ntypx) = 10
     Max number of k-points (npk) =  40000
     Max angular momentum in pseudopotentials (lmaxx) =  3
     Reading input from relax.in
               file H.pbe-kjpaw_psl.0.1.UPF: wavefunction(s)  1S renormalized
               file C.pbe-n-kjpaw_psl.0.1.UPF: wavefunction(s)  2P renormalized
               file N.pbe-n-kjpaw_psl.0.1.UPF: wavefunction(s)  2P renormalized
               file S.pbe-n-kjpaw_psl.0.1.UPF: wavefunction(s)  3P renormalized
               file Cl.pbe-n-kjpaw_psl.0.3.0.UPF: wavefunction(s)  3S 3P renormalized
               file Ni.pbe-n-kjpaw_psl.0.1.UPF: wavefunction(s)  4S 3D renormalized

     Atomic positions and unit cell read from directory:
     ./scratch/run-mystery.save/

     bravais-lattice index     =            6
     lattice parameter (alat)  =      18.0620  a.u.
     unit-cell volume          =    5536.7556 (a.u.)^3
     number of atoms/cell      =           70
     number of atomic types    =            6
     number of electrons       =       240.00
     number of Kohn-Sham states=          120
     kinetic-energy cutoff     =      60.0000  Ry
     charge density cutoff     =     600.0000  Ry
     convergence threshold     =      1.0E-07
     mixing beta               =       0.7000
     number of iterations used =            8  plain     mixing
     Exchange-correlation      =  SLA  PW   PBX  PBC ( 1 4 3 4 0)
     EXX-fraction              =        0.00
     nstep                     =           50

     celldm(1)=  18.062002  celldm(2)=   0.000000  celldm(3)=   0.939632
     celldm(4)=   0.000000  celldm(5)=   0.000000  celldm(6)=   0.000000

     crystal axes: (cart. coord. in units of alat)
               a(1) = (   1.000000   0.000000   0.000000 )
               a(2) = (   0.000000   1.000000   0.000000 )
               a(3) = (   0.000000   0.000000   0.939632 )

     reciprocal axes: (cart. coord. in units 2 pi/alat)
               b(1) = (  1.000000  0.000000  0.000000 )
               b(2) = (  0.000000  1.000000  0.000000 )
               b(3) = (  0.000000  0.000000  1.064247 )

     PseudoPot. # 1 for  H read from file:
     ./PSEUDOPOTENTIALS_GIPAW/H.pbe-kjpaw_psl.0.1.UPF
     MD5 check sum: fb87beb2c97a016760e7ba63abd37dee
     Pseudo is Projector augmented-wave, Zval =  1.0
     Generated using "atomic" code by A. Dal Corso  v.5.0.2 svn rev. 9605
     Shape of augmentation charge: PSQ
     Using radial grid of  929 points,  2 beta functions with:
                l(1) =   0
                l(2) =   0
     Q(r) pseudized with 0 coefficients

     PseudoPot. # 2 for  C read from file:
     ./PSEUDOPOTENTIALS_GIPAW/C.pbe-n-kjpaw_psl.0.1.UPF
     MD5 check sum: a13d6e77fdf331d01cbdc71e4cdf2375
     Pseudo is Projector augmented-wave + core cor, Zval =  4.0
     Generated using "atomic" code by A. Dal Corso  v.5.0.2 svn rev. 9605
     Shape of augmentation charge: BESSEL
     Using radial grid of 1073 points,  4 beta functions with:
                l(1) =   0
                l(2) =   0
                l(3) =   1
                l(4) =   1
     Q(r) pseudized with 0 coefficients

     PseudoPot. # 3 for  N read from file:
     ./PSEUDOPOTENTIALS_GIPAW/N.pbe-n-kjpaw_psl.0.1.UPF
     MD5 check sum: 68470fc8bd1ac1219743345880a0c0b4
     Pseudo is Projector augmented-wave + core cor, Zval =  5.0
     Generated using "atomic" code by A. Dal Corso  v.5.0.2 svn rev. 9605
     Shape of augmentation charge: PSQ
     Using radial grid of 1085 points,  4 beta functions with:
                l(1) =   0
                l(2) =   0
                l(3) =   1
                l(4) =   1
     Q(r) pseudized with 0 coefficients

     PseudoPot. # 4 for  S read from file:
     ./PSEUDOPOTENTIALS_GIPAW/S.pbe-n-kjpaw_psl.0.1.UPF
     MD5 check sum: c16a8bdd0a9fb4c97e90bb687cb57061
     Pseudo is Projector augmented-wave + core cor, Zval =  6.0
     Generated using "atomic" code by A. Dal Corso  v.5.0.2 svn rev. 9605
     Shape of augmentation charge: PSQ
     Using radial grid of 1151 points,  4 beta functions with:
                l(1) =   0
                l(2) =   0
                l(3) =   1
                l(4) =   1
     Q(r) pseudized with 0 coefficients

     PseudoPot. # 5 for Cl read from file:
     ./PSEUDOPOTENTIALS_GIPAW/Cl.pbe-n-kjpaw_psl.0.3.0.UPF
     MD5 check sum: d9e21192cb2aad6691c9ae241b29215e
     Pseudo is Projector augmented-wave + core cor, Zval =  7.0
     Generated using "atomic" code by A. Dal Corso  v.5.0.2 svn rev. 9605
     Shape of augmentation charge: PSQ
     Using radial grid of 1157 points,  4 beta functions with:
                l(1) =   0
                l(2) =   0
                l(3) =   1
                l(4) =   1
     Q(r) pseudized with 0 coefficients

     PseudoPot. # 6 for Ni read from file:
     ./PSEUDOPOTENTIALS_GIPAW/Ni.pbe-n-kjpaw_psl.0.1.UPF
     MD5 check sum: 946620350e71423045bef2cd4176bf8e
     Pseudo is Projector augmented-wave + core cor, Zval = 10.0
     Generated using "atomic" code by A. Dal Corso  v.5.0.2 svn rev. 9605
     Shape of augmentation charge: PSQ
     Using radial grid of 1195 points,  6 beta functions with:
                l(1) =   0
                l(2) =   0
                l(3) =   1
                l(4) =   1
                l(5) =   2
                l(6) =   2
     Q(r) pseudized with 0 coefficients

     atomic species   valence    mass     pseudopotential
        H              1.00     1.00000      H( 1.00)
        C              4.00     1.00000      C( 1.00)
        N              5.00     1.00000      N( 1.00)
        S              6.00     1.00000      S( 1.00)
        Cl             7.00     1.00000     Cl( 1.00)
        Ni            10.00     1.00000     Ni( 1.00)

      4 Sym. Ops. (no inversion) found

                                    s                        frac. trans.

      isym =  1     identity

 cryst.   s( 1) = (     1          0          0      )
                  (     0          1          0      )
                  (     0          0          1      )

 cart.    s( 1) = (  1.0000000  0.0000000  0.0000000 )
                  (  0.0000000  1.0000000  0.0000000 )
                  (  0.0000000  0.0000000  1.0000000 )

      isym =  2     180 deg rotation - cart. axis [0,0,1]

[...]

      isym =  4      90 deg rotation - cart. axis [0,0,1]

 cryst.   s( 4) = (     0          1          0      )
                  (    -1          0          0      )
                  (     0          0          1      )

 cart.    s( 4) = (  0.0000000 -1.0000000  0.0000000 )
                  (  1.0000000  0.0000000  0.0000000 )
                  (  0.0000000  0.0000000  1.0000000 )

     point group C_4 (4)
     there are  4 classes
     the character table:

       E     C4    C2    C4^3
A      1.00  1.00  1.00  1.00
B      1.00 -1.00  1.00 -1.00
E      1.00  0.00 -1.00  0.00
E*     1.00  0.00 -1.00  0.00
     imaginary part
A      0.00  0.00  0.00  0.00
B      0.00  0.00  0.00  0.00
E      0.00  1.00  0.00 -1.00
E*     0.00 -1.00  0.00  1.00

     the symmetry operations in each class:
     E        1
     C2       2
     C4^3     3
     C4       4

   Cartesian axes

     site n.     atom                  positions (alat units)
         1           C   tau(   1) = (   0.1524483   0.3075414   0.0753897  )
         2           C   tau(   2) = (  -0.1524483  -0.3075414   0.0753897  )
         3           C   tau(   3) = (   0.1924643   0.6524597   0.5451931  )
         4           C   tau(   4) = (  -0.3075414   0.1524483   0.0753897  )
         5           C   tau(   5) = (   0.3075414  -0.1524483   0.0753897  )
         6           C   tau(   6) = (   0.3475403   0.1924643   0.5451931  )
         7           C   tau(   7) = (   0.6524597   0.8075357   0.5451931  )
         8           C   tau(   8) = (   0.8075357   0.3475403   0.5451931  )
         9           Cl  tau(   9) = (   0.0000000   0.0000000  -0.3038804  )
        10           Cl  tau(  10) = (   0.0000000   0.0000000   0.2912064  )
        11           Cl  tau(  11) = (   0.5000000   0.5000000   0.1659372  )
        12           Cl  tau(  12) = (   0.5000000   0.5000000   0.7610264  )
        13           H   tau(  13) = (   0.0253160   0.6699411   0.4146402  )
        14           H   tau(  14) = (   0.0270733   0.7904903   0.5521372  )
        15           H   tau(  15) = (   0.1699355   0.4746869  -0.0551820  )
        16           H   tau(  16) = (  -0.1699355  -0.4746869  -0.0551820  )
        17           H   tau(  17) = (  -0.2097193   0.2206878  -0.2202567  )
        18           H   tau(  18) = (   0.2097193  -0.2206878  -0.2202567  )
        19           H   tau(  19) = (   0.2206878   0.2097193  -0.2202567  )
        20           H   tau(  20) = (  -0.2206878  -0.2097193  -0.2202567  )
        21           H   tau(  21) = (   0.1547931   0.8441308   0.2228486  )
        22           H   tau(  22) = (   0.1558692   0.1547931   0.2228486  )
        23           H   tau(  23) = (   0.2095097   0.0270733   0.5521372  )
        24           H   tau(  24) = (   0.2904727   0.4729449   0.0823246  )
        25           H   tau(  25) = (  -0.2904727  -0.4729449   0.0823246  )
        26           H   tau(  26) = (   0.3441408   0.3452061  -0.2469473  )
        27           H   tau(  27) = (  -0.3441408  -0.3452061  -0.2469473  )
        28           H   tau(  28) = (  -0.3452061   0.3441408  -0.2469473  )
        29           H   tau(  29) = (   0.3452061  -0.3441408  -0.2469473  )
        30           H   tau(  30) = (   0.2793101   0.2902833   0.2495658  )
        31           H   tau(  31) = (   0.2902833   0.7206899   0.2495658  )
        32           H   tau(  32) = (   0.3300589   0.0253160   0.4146402  )
        33           H   tau(  33) = (  -0.4729449   0.2904727   0.0823246  )
        34           H   tau(  34) = (   0.4729449  -0.2904727   0.0823246  )
        35           H   tau(  35) = (  -0.4746869   0.1699355  -0.0551820  )
        36           H   tau(  36) = (   0.4746869  -0.1699355  -0.0551820  )
        37           H   tau(  37) = (   0.6699411   0.9746840   0.4146402  )
        38           H   tau(  38) = (   0.7097167   0.2793101   0.2495658  )
        39           H   tau(  39) = (   0.7206899   0.7097167   0.2495658  )
        40           H   tau(  40) = (   0.7904903   0.9729267   0.5521372  )
        41           H   tau(  41) = (   0.8441308   0.8452069   0.2228486  )
        42           H   tau(  42) = (   0.8452069   0.1558692   0.2228486  )
        43           H   tau(  43) = (   0.9729267   0.2095097   0.5521372  )
        44           H   tau(  44) = (   0.9746840   0.3300589   0.4146402  )
        45           N   tau(  45) = (   0.0660526   0.7000007   0.5077414  )
        46           N   tau(  46) = (   0.2000018   0.4339691   0.0379431  )
        47           N   tau(  47) = (  -0.2000018  -0.4339691   0.0379431  )
        48           N   tau(  48) = (   0.2004538   0.2473535   0.1913063  )
        49           N   tau(  49) = (  -0.2004538  -0.2473535   0.1913063  )
[...]
     atom    2 type  2   force =     0.00000000    0.00000000    0.00000000
     atom    3 type  2   force =     0.00000000    0.00000000    0.00000000
     atom    4 type  2   force =     0.00000000    0.00000000    0.00000000
     atom    5 type  2   force =     0.00000000    0.00000000    0.00000000
     atom    6 type  2   force =     0.00000000    0.00000000    0.00000000
     atom    7 type  2   force =     0.00000000    0.00000000    0.00000000
     atom    8 type  2   force =     0.00000000    0.00000000    0.00000000
     atom    9 type  5   force =     0.00000000    0.00000000    0.00000000
     atom   10 type  5   force =     0.00000000    0.00000000    0.00000000
     atom   11 type  5   force =     0.00000000    0.00000000    0.00000000
     atom   12 type  5   force =     0.00000000    0.00000000    0.00000000
     atom   13 type  1   force =     0.00000000    0.00000000    0.00000000
     atom   14 type  1   force =     0.00000000    0.00000000    0.00000000
     atom   15 type  1   force =     0.00000000    0.00000000    0.00000000
     atom   16 type  1   force =     0.00000000    0.00000000    0.00000000
     atom   17 type  1   force =     0.00000000    0.00000000    0.00000000
     atom   18 type  1   force =     0.00000000    0.00000000    0.00000000
     atom   19 type  1   force =     0.00000000    0.00000000    0.00000000
     atom   20 type  1   force =     0.00000000    0.00000000    0.00000000
     atom   21 type  1   force =     0.00000000    0.00000000    0.00000000
     atom   22 type  1   force =     0.00000000    0.00000000    0.00000000
     atom   23 type  1   force =     0.00000000    0.00000000    0.00000000
     atom   24 type  1   force =     0.00000000    0.00000000    0.00000000
     atom   25 type  1   force =     0.00000000    0.00000000    0.00000000
     atom   26 type  1   force =     0.00000000    0.00000000    0.00000000
     atom   27 type  1   force =     0.00000000    0.00000000    0.00000000
     atom   28 type  1   force =     0.00000000    0.00000000    0.00000000
     atom   29 type  1   force =     0.00000000    0.00000000    0.00000000
     atom   30 type  1   force =     0.00000000    0.00000000    0.00000000
     atom   31 type  1   force =     0.00000000    0.00000000    0.00000000
     atom   32 type  1   force =     0.00000000    0.00000000    0.00000000
     atom   33 type  1   force =     0.00000000    0.00000000    0.00000000
     atom   34 type  1   force =     0.00000000    0.00000000    0.00000000
     atom   35 type  1   force =     0.00000000    0.00000000    0.00000000
     atom   36 type  1   force =     0.00000000    0.00000000    0.00000000
     atom   37 type  1   force =     0.00000000    0.00000000    0.00000000
     atom   38 type  1   force =     0.00000000    0.00000000    0.00000000
     atom   39 type  1   force =     0.00000000    0.00000000    0.00000000
     atom   40 type  1   force =     0.00000000    0.00000000    0.00000000
     atom   41 type  1   force =     0.00000000    0.00000000    0.00000000
     atom   42 type  1   force =     0.00000000    0.00000000    0.00000000
     atom   43 type  1   force =     0.00000000    0.00000000    0.00000000
     atom   44 type  1   force =     0.00000000    0.00000000    0.00000000
     atom   45 type  3   force =     0.00000000    0.00000000    0.00000000
     atom   46 type  3   force =     0.00000000    0.00000000    0.00000000
     atom   47 type  3   force =     0.00000000    0.00000000    0.00000000
     atom   48 type  3   force =     0.00000000    0.00000000    0.00000000
     atom   49 type  3   force =     0.00000000    0.00000000    0.00000000
     atom   50 type  3   force =     0.00000000    0.00000000    0.00000000
     atom   51 type  3   force =     0.00000000    0.00000000    0.00000000
     atom   52 type  3   force =     0.00000000    0.00000000    0.00000000
     atom   53 type  3   force =     0.00000000    0.00000000    0.00000000
     atom   54 type  3   force =     0.00000000    0.00000000    0.00000000
     atom   55 type  3   force =     0.00000000    0.00000000    0.00000000
     atom   56 type  3   force =     0.00000000    0.00000000    0.00000000
     atom   57 type  3   force =     0.00000000    0.00000000    0.00000000
     atom   58 type  3   force =     0.00000000    0.00000000    0.00000000
     atom   59 type  3   force =     0.00000000    0.00000000    0.00000000
     atom   60 type  3   force =     0.00000000    0.00000000    0.00000000
     atom   61 type  6   force =     0.00000000    0.00000000    0.00000000
     atom   62 type  6   force =     0.00000000    0.00000000    0.00000000
     atom   63 type  4   force =     0.00000000    0.00000000    0.00000000
     atom   64 type  4   force =     0.00000000    0.00000000    0.00000000
     atom   65 type  4   force =     0.00000000    0.00000000    0.00000000
     atom   66 type  4   force =     0.00000000    0.00000000    0.00000000
     atom   67 type  4   force =     0.00000000    0.00000000    0.00000000
     atom   68 type  4   force =     0.00000000    0.00000000    0.00000000
     atom   69 type  4   force =     0.00000000    0.00000000    0.00000000
     atom   70 type  4   force =     0.00000000    0.00000000    0.00000000
     The SCF correction term to forces
     atom    1 type  2   force =     0.00001151    0.00001223    0.00005274
     atom    2 type  2   force =    -0.00001151   -0.00001223    0.00005274
     atom    3 type  2   force =     0.00002540   -0.00002197   -0.00004042
     atom    4 type  2   force =    -0.00001223    0.00001151    0.00005274
     atom    5 type  2   force =     0.00001223   -0.00001151    0.00005274
     atom    6 type  2   force =     0.00002197    0.00002540   -0.00004042
     atom    7 type  2   force =    -0.00002197   -0.00002540   -0.00004042
     atom    8 type  2   force =    -0.00002540    0.00002197   -0.00004042
     atom    9 type  5   force =    -0.00000000   -0.00000000   -0.00006043
     atom   10 type  5   force =     0.00000000    0.00000000   -0.00005122
     atom   11 type  5   force =     0.00000000   -0.00000000    0.00011499
     atom   12 type  5   force =     0.00000000    0.00000000   -0.00000176
     atom   13 type  1   force =    -0.00000061   -0.00000573   -0.00001006
     atom   14 type  1   force =    -0.00000056   -0.00000729   -0.00000919
     atom   15 type  1   force =     0.00000052   -0.00000044    0.00000823
     atom   16 type  1   force =    -0.00000052    0.00000044    0.00000823
     atom   17 type  1   force =    -0.00000719    0.00000571   -0.00000004
     atom   18 type  1   force =     0.00000719   -0.00000571   -0.00000004
     atom   19 type  1   force =     0.00000571    0.00000719   -0.00000004
     atom   20 type  1   force =    -0.00000571   -0.00000719   -0.00000004
     atom   21 type  1   force =     0.00001228   -0.00000831   -0.00000240
     atom   22 type  1   force =     0.00000831    0.00001228   -0.00000240
     atom   23 type  1   force =     0.00000729   -0.00000056   -0.00000919
     atom   24 type  1   force =    -0.00000197   -0.00000117    0.00001046
     atom   25 type  1   force =     0.00000197    0.00000117    0.00001046
     atom   26 type  1   force =     0.00000050    0.00000173   -0.00000324
     atom   27 type  1   force =    -0.00000050   -0.00000173   -0.00000324
     atom   28 type  1   force =    -0.00000173    0.00000050   -0.00000324
     atom   29 type  1   force =     0.00000173   -0.00000050   -0.00000324
     atom   30 type  1   force =    -0.00000069    0.00000248   -0.00000141
     atom   31 type  1   force =     0.00000248    0.00000069   -0.00000141
     atom   32 type  1   force =     0.00000573   -0.00000061   -0.00001006
     atom   33 type  1   force =     0.00000117   -0.00000197    0.00001046
     atom   34 type  1   force =    -0.00000117    0.00000197    0.00001046
     atom   35 type  1   force =     0.00000044    0.00000052    0.00000823
     atom   36 type  1   force =    -0.00000044   -0.00000052    0.00000823
     atom   37 type  1   force =    -0.00000573    0.00000061   -0.00001006
     atom   38 type  1   force =    -0.00000248   -0.00000069   -0.00000141
     atom   39 type  1   force =     0.00000069   -0.00000248   -0.00000141
     atom   40 type  1   force =    -0.00000729    0.00000056   -0.00000919
     atom   41 type  1   force =    -0.00000831   -0.00001228   -0.00000240
     atom   42 type  1   force =    -0.00001228    0.00000831   -0.00000240
     atom   43 type  1   force =     0.00000056    0.00000729   -0.00000919
     atom   44 type  1   force =     0.00000061    0.00000573   -0.00001006
     atom   45 type  3   force =    -0.00000669   -0.00002871   -0.00005801
     atom   46 type  3   force =    -0.00000203   -0.00000663    0.00005484
     atom   47 type  3   force =     0.00000203    0.00000663    0.00005484
     atom   48 type  3   force =     0.00002209    0.00003221    0.00001933
     atom   49 type  3   force =    -0.00002209   -0.00003221    0.00001933
     atom   50 type  3   force =     0.00004323   -0.00002154   -0.00000748
     atom   51 type  3   force =    -0.00003221    0.00002209    0.00001933
     atom   52 type  3   force =     0.00003221   -0.00002209    0.00001933
     atom   53 type  3   force =     0.00002154    0.00004323   -0.00000748
     atom   54 type  3   force =     0.00002871   -0.00000669   -0.00005801
     atom   55 type  3   force =    -0.00000663    0.00000203    0.00005484
     atom   56 type  3   force =     0.00000663   -0.00000203    0.00005484
     atom   57 type  3   force =    -0.00002871    0.00000669   -0.00005801
     atom   58 type  3   force =    -0.00002154   -0.00004323   -0.00000748
     atom   59 type  3   force =    -0.00004323    0.00002154   -0.00000748
     atom   60 type  3   force =     0.00000669    0.00002871   -0.00005801
     atom   61 type  6   force =     0.00000000    0.00000000    0.00019439
     atom   62 type  6   force =    -0.00000000   -0.00000000   -0.00020649
     atom   63 type  4   force =     0.00001387    0.00005806    0.00008841
     atom   64 type  4   force =    -0.00001387   -0.00005806    0.00008841
     atom   65 type  4   force =     0.00004592   -0.00002152   -0.00008729
     atom   66 type  4   force =    -0.00005806    0.00001387    0.00008841
     atom   67 type  4   force =     0.00005806   -0.00001387    0.00008841
     atom   68 type  4   force =     0.00002152    0.00004592   -0.00008729
     atom   69 type  4   force =    -0.00002152   -0.00004592   -0.00008729
     atom   70 type  4   force =    -0.00004592    0.00002152   -0.00008729

     Total force =     0.004711     Total SCF correction =     0.000509
     SCF correction compared to forces is large: reduce conv_thr to get better values

     entering subroutine stress ...

          total   stress  (Ry/bohr**3)                   (kbar)     P=   13.41
   0.00004789   0.00000000   0.00000000          7.05      0.00      0.00
  -0.00000000   0.00004789   0.00000000         -0.00      7.05      0.00
   0.00000000   0.00000000   0.00017761          0.00      0.00     26.13

     kinetic stress (kbar)   7597.85      0.00      0.00
                                0.00   7597.85      0.00
                                0.00      0.00   7666.68

     local   stress (kbar)  -8078.56     -0.00      0.00
                               -0.00  -8078.56      0.00
                                0.00      0.00  -7609.58

     nonloc. stress (kbar)   3261.93      0.00      0.00
                                0.00   3261.93      0.00
                                0.00      0.00   3258.70

     hartree stress (kbar)   3419.88      0.00      0.00
                                0.00   3419.88      0.00
                                0.00      0.00   3325.07

     exc-cor stress (kbar)    625.70     -0.00     -0.00
                               -0.00    625.70     -0.00
                               -0.00     -0.00    625.57

     corecor stress (kbar)  -2742.70     -0.00      0.00
                               -0.00  -2742.70      0.00
                                0.00      0.00  -2759.36

     ewald   stress (kbar)  -4077.06      0.00     -0.00
                                0.00  -4077.06     -0.00
                               -0.00     -0.00  -4480.96

     hubbard stress (kbar)      0.00      0.00      0.00
                                0.00      0.00      0.00
                                0.00      0.00      0.00

     london  stress (kbar)      0.00      0.00      0.00
                                0.00      0.00      0.00
                                0.00      0.00      0.00

     dft-nl  stress (kbar)      0.00      0.00      0.00
                                0.00      0.00      0.00
                                0.00      0.00      0.00

     BFGS Geometry Optimization

     bfgs converged in   1 scf cycles and   0 bfgs steps
     (criteria: energy < 0.10E-03, force < 0.10E-02)

     End of BFGS Geometry Optimization

     Final energy   =   -1856.9457445326 Ry
Begin final coordinates

ATOMIC_POSITIONS (crystal)
C        0.152448313   0.307541357   0.080233243
C       -0.152448313  -0.307541357   0.080233243
C        0.192464312   0.652459677   0.580219964
C       -0.307541357   0.152448313   0.080233243
C        0.307541357  -0.152448313   0.080233243
C        0.347540323   0.192464312   0.580219964
C        0.652459677   0.807535688   0.580219964
C        0.807535688   0.347540323   0.580219964
Cl       0.000000000   0.000000000  -0.323403747
Cl       0.000000000   0.000000000   0.309915509
Cl       0.500000000   0.500000000   0.176598075
Cl       0.500000000   0.500000000   0.809919883
H        0.025315953   0.669941067   0.441279432
H        0.027073347   0.790490330   0.587610239
H        0.169935543   0.474686931  -0.058727273
H       -0.169935543  -0.474686931  -0.058727273
H       -0.209719269   0.220687791  -0.234407475
H        0.209719269  -0.220687791  -0.234407475
H        0.220687791   0.209719269  -0.234407475
H       -0.220687791  -0.209719269  -0.234407475
H        0.154793147   0.844130821   0.237165890
H        0.155869179   0.154793147   0.237165890
H        0.209509670   0.027073347   0.587610239
H        0.290472689   0.472944936   0.087613647
H       -0.290472689  -0.472944936   0.087613647
H        0.344140762   0.345206053  -0.262812868
H       -0.344140762  -0.345206053  -0.262812868
H       -0.345206053   0.344140762  -0.262812868
H        0.345206053  -0.344140762  -0.262812868
H        0.279310059   0.290283271   0.265599563
H        0.290283271   0.720689941   0.265599563
H        0.330058933   0.025315953   0.441279432
H       -0.472944936   0.290472689   0.087613647
H        0.472944936  -0.290472689   0.087613647
H       -0.474686931   0.169935543  -0.058727273
H        0.474686931  -0.169935543  -0.058727273
H        0.669941067   0.974684047   0.441279432
H        0.709716729   0.279310059   0.265599563
H        0.720689941   0.709716729   0.265599563
H        0.790490330   0.972926653   0.587610239
H        0.844130821   0.845206853   0.237165890
H        0.845206853   0.155869179   0.237165890
H        0.972926653   0.209509670   0.587610239
H        0.974684047   0.330058933   0.441279432
N        0.066052579   0.700000662   0.540362083
N        0.200001842   0.433969138   0.040380852
N       -0.200001842  -0.433969138   0.040380852
N        0.200453828   0.247353518   0.203597137
N       -0.200453828  -0.247353518   0.203597137
N        0.252652225   0.700436806   0.703615924
N       -0.247353518   0.200453828   0.203597137
N        0.247353518  -0.200453828   0.203597137
N        0.299563194   0.252652225   0.703615924
N        0.299999338   0.066052579   0.540362083
N        0.433969138  -0.200001842   0.040380852
N       -0.433969138   0.200001842   0.040380852
N        0.700000662   0.933947421   0.540362083
N        0.700436806   0.747347775   0.703615924
N        0.747347775   0.299563194   0.703615924
N        0.933947421   0.299999338   0.540362083
Ni       0.000000000   0.000000000   0.014530421
Ni       0.500000000   0.500000000   0.514486875
S        0.028505120   0.227882183  -0.031160929
S       -0.028505120  -0.227882183  -0.031160929
S        0.272104999   0.528509150   0.468818819
S       -0.227882183   0.028505120  -0.031160929
S        0.227882183  -0.028505120  -0.031160929
S        0.471490850   0.272104999   0.468818819
S        0.528509150   0.727895001   0.468818819
S        0.727895001   0.471490850   0.468818819
End final coordinates

     Writing output data file run-mystery.save

     General routines

     Parallel routines

     PAW routines

   This run was terminated on:  11:37:41  13Oct2013

   JOB DONE.