     Program PWSCF v.5.3.0 (svn rev. 11974) starts on  3Feb2016 at 14:40: 8

     Current dimensions of program PWSCF are:
     Max number of different atomic species (ntypx) = 10
     Max number of k-points (npk) =  40000
     Max angular momentum in pseudopotentials (lmaxx) =  3
               file H.pbe-kjpaw_psl.0.1.UPF: wavefunction(s)  1S renormalized
               file C.pbe-n-kjpaw_psl.0.1.UPF: wavefunction(s)  2P renormalized
               file N.pbe-n-kjpaw_psl.0.1.UPF: wavefunction(s)  2P renormalized
               file S.pbe-n-kjpaw_psl.0.1.UPF: wavefunction(s)  3P renormalized
               file Cl.pbe-n-kjpaw_psl.0.3.0.UPF: wavefunction(s)  3S 3P renormalized
               file Ni.pbe-n-kjpaw_psl.0.1.UPF: wavefunction(s)  4S 3D renormalized

     Subspace diagonalization in iterative solution of the eigenvalue problem:
     a serial algorithm will be used

     Found symmetry operation: I + ( -0.5000  0.5000  0.5000)
     This is a supercell, fractional translations are disabled

     bravais-lattice index     =            6
     lattice parameter (alat)  =      18.0620  a.u.
     unit-cell volume          =    5536.7556 (a.u.)^3
     number of atoms/cell      =           70
     number of atomic types    =            6
     number of electrons       =       240.00
     number of Kohn-Sham states=          144
     kinetic-energy cutoff     =      70.0000  Ry
     charge density cutoff     =     700.0000  Ry
     convergence threshold     =      1.0E-07
     mixing beta               =       0.7000
     number of iterations used =            8  plain     mixing
     Exchange-correlation      =  SLA  PW   PBX  PBC ( 1  4  3  4 0 0)
     nstep                     =           50

     celldm(1)=  18.062002  celldm(2)=   0.000000  celldm(3)=   0.939632
     celldm(4)=   0.000000  celldm(5)=   0.000000  celldm(6)=   0.000000

     crystal axes: (cart. coord. in units of alat)
               a(1) = (   1.000000   0.000000   0.000000 )
               a(2) = (   0.000000   1.000000   0.000000 )
               a(3) = (   0.000000   0.000000   0.939632 )

     reciprocal axes: (cart. coord. in units 2 pi/alat)
               b(1) = (  1.000000  0.000000  0.000000 )
               b(2) = (  0.000000  1.000000  0.000000 )
               b(3) = (  0.000000  0.000000  1.064247 )

     PseudoPot. # 1 for  H read from file:
     ./pseudo/H.pbe-kjpaw_psl.0.1.UPF
     MD5 check sum: fb87beb2c97a016760e7ba63abd37dee
     Pseudo is Projector augmented-wave, Zval =  1.0
     Generated using "atomic" code by A. Dal Corso  v.5.0.2 svn rev. 9605
     Shape of augmentation charge: PSQ
     Using radial grid of  929 points,  2 beta functions with:
                l(1) =   0
                l(2) =   0
     Q(r) pseudized with 0 coefficients

     PseudoPot. # 2 for  C read from file:
     ./pseudo/C.pbe-n-kjpaw_psl.0.1.UPF
     MD5 check sum: a13d6e77fdf331d01cbdc71e4cdf2375
     Pseudo is Projector augmented-wave + core cor, Zval =  4.0
     Generated using "atomic" code by A. Dal Corso  v.5.0.2 svn rev. 9605
     Shape of augmentation charge: BESSEL
     Using radial grid of 1073 points,  4 beta functions with:
                l(1) =   0
                l(2) =   0
                l(3) =   1
                l(4) =   1
     Q(r) pseudized with 0 coefficients

     PseudoPot. # 3 for  N read from file:
     ./pseudo/N.pbe-n-kjpaw_psl.0.1.UPF
     MD5 check sum: 68470fc8bd1ac1219743345880a0c0b4
     Pseudo is Projector augmented-wave + core cor, Zval =  5.0
     Generated using "atomic" code by A. Dal Corso  v.5.0.2 svn rev. 9605
     Shape of augmentation charge: PSQ
     Using radial grid of 1085 points,  4 beta functions with:
                l(1) =   0
                l(2) =   0
                l(3) =   1
                l(4) =   1
     Q(r) pseudized with 0 coefficients

     PseudoPot. # 4 for  S read from file:
     ./pseudo/S.pbe-n-kjpaw_psl.0.1.UPF
     MD5 check sum: c16a8bdd0a9fb4c97e90bb687cb57061
     Pseudo is Projector augmented-wave + core cor, Zval =  6.0
     Generated using "atomic" code by A. Dal Corso  v.5.0.2 svn rev. 9605
     Shape of augmentation charge: PSQ
     Using radial grid of 1151 points,  4 beta functions with:
                l(1) =   0
                l(2) =   0
                l(3) =   1
                l(4) =   1
     Q(r) pseudized with 0 coefficients

     PseudoPot. # 5 for Cl read from file:
     ./pseudo/Cl.pbe-n-kjpaw_psl.0.3.0.UPF
     MD5 check sum: d9e21192cb2aad6691c9ae241b29215e
     Pseudo is Projector augmented-wave + core cor, Zval =  7.0
     Generated using "atomic" code by A. Dal Corso  v.5.0.2 svn rev. 9605
     Shape of augmentation charge: PSQ
     Using radial grid of 1157 points,  4 beta functions with:
                l(1) =   0
                l(2) =   0
                l(3) =   1
                l(4) =   1
     Q(r) pseudized with 0 coefficients

     PseudoPot. # 6 for Ni read from file:
     ./pseudo/Ni.pbe-n-kjpaw_psl.0.1.UPF
     MD5 check sum: 946620350e71423045bef2cd4176bf8e
     Pseudo is Projector augmented-wave + core cor, Zval = 10.0
     Generated using "atomic" code by A. Dal Corso  v.5.0.2 svn rev. 9605
     Shape of augmentation charge: PSQ
     Using radial grid of 1195 points,  6 beta functions with:
                l(1) =   0
                l(2) =   0
                l(3) =   1
                l(4) =   1
                l(5) =   2
                l(6) =   2
     Q(r) pseudized with 0 coefficients

     atomic species   valence    mass     pseudopotential
        H              1.00     1.00000      H( 1.00)
        C              4.00     1.00000      C( 1.00)
        N              5.00     1.00000      N( 1.00)
        S              6.00     1.00000      S( 1.00)
        Cl             7.00     1.00000     Cl( 1.00)
        Ni            10.00     1.00000     Ni( 1.00)

      4 Sym. Ops. (no inversion) found

                                    s                        frac. trans.

      isym =  1     identity

 cryst.   s( 1) = (     1          0          0      )
                  (     0          1          0      )
                  (     0          0          1      )

 cart.    s( 1) = (  1.0000000  0.0000000  0.0000000 )
                  (  0.0000000  1.0000000  0.0000000 )
                  (  0.0000000  0.0000000  1.0000000 )

      isym =  2     180 deg rotation - cart. axis [0,0,1]

[...]

      isym =  4      90 deg rotation - cart. axis [0,0,1]

 cryst.   s( 4) = (     0          1          0      )
                  (    -1          0          0      )
                  (     0          0          1      )

 cart.    s( 4) = (  0.0000000 -1.0000000  0.0000000 )
                  (  1.0000000  0.0000000  0.0000000 )
                  (  0.0000000  0.0000000  1.0000000 )

     point group C_4 (4)
     there are  4 classes
     the character table:

       E     C4    C2    C4^3
A      1.00  1.00  1.00  1.00
B      1.00 -1.00  1.00 -1.00
E      1.00  0.00 -1.00  0.00
E*     1.00  0.00 -1.00  0.00
     imaginary part
A      0.00  0.00  0.00  0.00
B      0.00  0.00  0.00  0.00
E      0.00  1.00  0.00 -1.00
E*     0.00 -1.00  0.00  1.00

     the symmetry operations in each class and the name of the first element:

     E        1
          identity
     C4       4
           90 deg rotation - cart. axis [0,0,1]
     C2       2
          180 deg rotation - cart. axis [0,0,1]
     C4^3     3
           90 deg rotation - cart. axis [0,0,-1]

   Cartesian axes

     site n.     atom                  positions (alat units)
         1           C   tau(   1) = (   0.1545000   0.3271000   0.0890771  )
         2           C   tau(   2) = (  -0.1545000  -0.3271000   0.0890771  )
         3           C   tau(   3) = (   0.1729000   0.6545000   0.5588929  )
         4           C   tau(   4) = (  -0.3271000   0.1545000   0.0890771  )
         5           C   tau(   5) = (   0.3271000  -0.1545000   0.0890771  )
         6           C   tau(   6) = (   0.3455000   0.1729000   0.5588929  )
         7           C   tau(   7) = (   0.6545000   0.8271000   0.5588929  )
         8           C   tau(   8) = (   0.8271000   0.3455000   0.5588929  )
         9           Cl  tau(   9) = (   0.0000000   0.0000000  -0.2519153  )
        10           Cl  tau(  10) = (   0.0000000   0.0000000   0.2622512  )
        11           Cl  tau(  11) = (   0.5000000   0.5000000   0.2179006  )
        12           Cl  tau(  12) = (   0.5000000   0.5000000   0.7320671  )
        13           H   tau(  13) = (   0.0068000   0.6620000   0.4940584  )
        14           H   tau(  14) = (   0.0288000   0.7644000   0.3968065  )
        15           H   tau(  15) = (   0.1620000   0.4932000   0.0242425  )
        16           H   tau(  16) = (  -0.1620000  -0.4932000   0.0242425  )
        17           H   tau(  17) = (  -0.1774000   0.1786000  -0.2114171  )
        18           H   tau(  18) = (   0.1774000  -0.1786000  -0.2114171  )
        19           H   tau(  19) = (   0.1786000   0.1774000  -0.2114171  )
        20           H   tau(  20) = (  -0.1786000  -0.1774000  -0.2114171  )
        21           H   tau(  21) = (   0.2037000   0.7684000   0.2337804  )
        22           H   tau(  22) = (   0.2316000   0.2037000   0.2337804  )
        23           H   tau(  23) = (   0.2356000   0.0288000   0.3968065  )
        24           H   tau(  24) = (   0.2644000   0.4712000  -0.0730094  )
        25           H   tau(  25) = (  -0.2644000  -0.4712000  -0.0730094  )
        26           H   tau(  26) = (   0.2684000   0.2963000  -0.2360355  )
        27           H   tau(  27) = (  -0.2684000  -0.2963000  -0.2360355  )
        28           H   tau(  28) = (  -0.2963000   0.2684000  -0.2360355  )
        29           H   tau(  29) = (   0.2963000  -0.2684000  -0.2360355  )
        30           H   tau(  30) = (   0.3214000   0.3226000   0.2583987  )
        31           H   tau(  31) = (   0.3226000   0.6786000   0.2583987  )
        32           H   tau(  32) = (   0.3380000   0.0068000   0.4940584  )
        33           H   tau(  33) = (  -0.4712000   0.2644000  -0.0730094  )
        34           H   tau(  34) = (   0.4712000  -0.2644000  -0.0730094  )
        35           H   tau(  35) = (  -0.4932000   0.1620000   0.0242425  )
        36           H   tau(  36) = (   0.4932000  -0.1620000   0.0242425  )
        37           H   tau(  37) = (   0.6620000   0.9932000   0.4940584  )
        38           H   tau(  38) = (   0.6774000   0.3214000   0.2583987  )
        39           H   tau(  39) = (   0.6786000   0.6774000   0.2583987  )
        40           H   tau(  40) = (   0.7644000   0.9712000   0.3968065  )
        41           H   tau(  41) = (   0.7684000   0.7963000   0.2337804  )
        42           H   tau(  42) = (   0.7963000   0.2316000   0.2337804  )
        43           H   tau(  43) = (   0.9712000   0.2356000   0.3968065  )
        44           H   tau(  44) = (   0.9932000   0.3380000   0.4940584  )
        45           N   tau(  45) = (   0.0430000   0.6968000   0.5280730  )
        46           N   tau(  46) = (   0.1968000   0.4570000   0.0582572  )
[...]
     atom    7 type  2   force =     0.00000000    0.00000000    0.00000000
     atom    8 type  2   force =     0.00000000    0.00000000    0.00000000
     atom    9 type  5   force =     0.00000000    0.00000000    0.00000000
     atom   10 type  5   force =     0.00000000    0.00000000    0.00000000
     atom   11 type  5   force =     0.00000000    0.00000000    0.00000000
     atom   12 type  5   force =     0.00000000    0.00000000    0.00000000
     atom   13 type  1   force =     0.00000000    0.00000000    0.00000000
     atom   14 type  1   force =     0.00000000    0.00000000    0.00000000
     atom   15 type  1   force =     0.00000000    0.00000000    0.00000000
     atom   16 type  1   force =     0.00000000    0.00000000    0.00000000
     atom   17 type  1   force =     0.00000000    0.00000000    0.00000000
     atom   18 type  1   force =     0.00000000    0.00000000    0.00000000
     atom   19 type  1   force =     0.00000000    0.00000000    0.00000000
     atom   20 type  1   force =     0.00000000    0.00000000    0.00000000
     atom   21 type  1   force =     0.00000000    0.00000000    0.00000000
     atom   22 type  1   force =     0.00000000    0.00000000    0.00000000
     atom   23 type  1   force =     0.00000000    0.00000000    0.00000000
     atom   24 type  1   force =     0.00000000    0.00000000    0.00000000
     atom   25 type  1   force =     0.00000000    0.00000000    0.00000000
     atom   26 type  1   force =     0.00000000    0.00000000    0.00000000
     atom   27 type  1   force =     0.00000000    0.00000000    0.00000000
     atom   28 type  1   force =     0.00000000    0.00000000    0.00000000
     atom   29 type  1   force =     0.00000000    0.00000000    0.00000000
     atom   30 type  1   force =     0.00000000    0.00000000    0.00000000
     atom   31 type  1   force =     0.00000000    0.00000000    0.00000000
     atom   32 type  1   force =     0.00000000    0.00000000    0.00000000
     atom   33 type  1   force =     0.00000000    0.00000000    0.00000000
     atom   34 type  1   force =     0.00000000    0.00000000    0.00000000
     atom   35 type  1   force =     0.00000000    0.00000000    0.00000000
     atom   36 type  1   force =     0.00000000    0.00000000    0.00000000
     atom   37 type  1   force =     0.00000000    0.00000000    0.00000000
     atom   38 type  1   force =     0.00000000    0.00000000    0.00000000
     atom   39 type  1   force =     0.00000000    0.00000000    0.00000000
     atom   40 type  1   force =     0.00000000    0.00000000    0.00000000
     atom   41 type  1   force =     0.00000000    0.00000000    0.00000000
     atom   42 type  1   force =     0.00000000    0.00000000    0.00000000
     atom   43 type  1   force =     0.00000000    0.00000000    0.00000000
     atom   44 type  1   force =     0.00000000    0.00000000    0.00000000
     atom   45 type  3   force =     0.00000000    0.00000000    0.00000000
     atom   46 type  3   force =     0.00000000    0.00000000    0.00000000
     atom   47 type  3   force =     0.00000000    0.00000000    0.00000000
     atom   48 type  3   force =     0.00000000    0.00000000    0.00000000
     atom   49 type  3   force =     0.00000000    0.00000000    0.00000000
     atom   50 type  3   force =     0.00000000    0.00000000    0.00000000
     atom   51 type  3   force =     0.00000000    0.00000000    0.00000000
     atom   52 type  3   force =     0.00000000    0.00000000    0.00000000
     atom   53 type  3   force =     0.00000000    0.00000000    0.00000000
     atom   54 type  3   force =     0.00000000    0.00000000    0.00000000
     atom   55 type  3   force =     0.00000000    0.00000000    0.00000000
     atom   56 type  3   force =     0.00000000    0.00000000    0.00000000
     atom   57 type  3   force =     0.00000000    0.00000000    0.00000000
     atom   58 type  3   force =     0.00000000    0.00000000    0.00000000
     atom   59 type  3   force =     0.00000000    0.00000000    0.00000000
     atom   60 type  3   force =     0.00000000    0.00000000    0.00000000
     atom   61 type  6   force =     0.00000000    0.00000000    0.00000000
     atom   62 type  6   force =     0.00000000    0.00000000    0.00000000
     atom   63 type  4   force =     0.00000000    0.00000000    0.00000000
     atom   64 type  4   force =     0.00000000    0.00000000    0.00000000
     atom   65 type  4   force =     0.00000000    0.00000000    0.00000000
     atom   66 type  4   force =     0.00000000    0.00000000    0.00000000
     atom   67 type  4   force =     0.00000000    0.00000000    0.00000000
     atom   68 type  4   force =     0.00000000    0.00000000    0.00000000
     atom   69 type  4   force =     0.00000000    0.00000000    0.00000000
     atom   70 type  4   force =     0.00000000    0.00000000    0.00000000
     The SCF correction term to forces
     atom    1 type  2   force =     0.00000464    0.00000005    0.00001224
     atom    2 type  2   force =    -0.00000464   -0.00000005    0.00001224
     atom    3 type  2   force =    -0.00000296   -0.00000085   -0.00000991
     atom    4 type  2   force =    -0.00000005    0.00000464    0.00001224
     atom    5 type  2   force =     0.00000005   -0.00000464    0.00001224
     atom    6 type  2   force =     0.00000085   -0.00000296   -0.00000991
     atom    7 type  2   force =    -0.00000085    0.00000296   -0.00000991
     atom    8 type  2   force =     0.00000296    0.00000085   -0.00000991
     atom    9 type  5   force =    -0.00000000   -0.00000000   -0.00003805
     atom   10 type  5   force =     0.00000000    0.00000000    0.00002820
     atom   11 type  5   force =    -0.00000000   -0.00000000    0.00000537
     atom   12 type  5   force =    -0.00000000    0.00000000    0.00001294
     atom   13 type  1   force =     0.00000044    0.00000076    0.00000042
     atom   14 type  1   force =     0.00000024   -0.00000004   -0.00000255
     atom   15 type  1   force =     0.00000026    0.00000034   -0.00000013
     atom   16 type  1   force =    -0.00000026   -0.00000034   -0.00000013
     atom   17 type  1   force =    -0.00000004    0.00000009   -0.00000129
     atom   18 type  1   force =     0.00000004   -0.00000009   -0.00000129
     atom   19 type  1   force =     0.00000009    0.00000004   -0.00000129
     atom   20 type  1   force =    -0.00000009   -0.00000004   -0.00000129
     atom   21 type  1   force =     0.00000213   -0.00000145    0.00000163
     atom   22 type  1   force =     0.00000145    0.00000213    0.00000163
     atom   23 type  1   force =     0.00000004    0.00000024   -0.00000255
     atom   24 type  1   force =     0.00000216    0.00000023    0.00000181
     atom   25 type  1   force =    -0.00000216   -0.00000023    0.00000181
     atom   26 type  1   force =     0.00000086    0.00000143   -0.00000015
     atom   27 type  1   force =    -0.00000086   -0.00000143   -0.00000015
     atom   28 type  1   force =    -0.00000143    0.00000086   -0.00000015
     atom   29 type  1   force =     0.00000143   -0.00000086   -0.00000015
     atom   30 type  1   force =    -0.00000126   -0.00000076   -0.00000038
     atom   31 type  1   force =    -0.00000076    0.00000126   -0.00000038
     atom   32 type  1   force =    -0.00000076    0.00000044    0.00000042
     atom   33 type  1   force =    -0.00000023    0.00000216    0.00000181
     atom   34 type  1   force =     0.00000023   -0.00000216    0.00000181
     atom   35 type  1   force =    -0.00000034    0.00000026   -0.00000013
     atom   36 type  1   force =     0.00000034   -0.00000026   -0.00000013
     atom   37 type  1   force =     0.00000076   -0.00000044    0.00000042
     atom   38 type  1   force =     0.00000076   -0.00000126   -0.00000038
     atom   39 type  1   force =     0.00000126    0.00000076   -0.00000038
     atom   40 type  1   force =    -0.00000004   -0.00000024   -0.00000255
     atom   41 type  1   force =    -0.00000145   -0.00000213    0.00000163
     atom   42 type  1   force =    -0.00000213    0.00000145    0.00000163
     atom   43 type  1   force =    -0.00000024    0.00000004   -0.00000255
     atom   44 type  1   force =    -0.00000044   -0.00000076    0.00000042
     atom   45 type  3   force =    -0.00000260    0.00000057   -0.00000949
     atom   46 type  3   force =     0.00000655   -0.00000259    0.00000996
     atom   47 type  3   force =    -0.00000655    0.00000259    0.00000996
     atom   48 type  3   force =     0.00000671    0.00000368    0.00001268
     atom   49 type  3   force =    -0.00000671   -0.00000368    0.00001268
     atom   50 type  3   force =    -0.00000094    0.00000127   -0.00000562
     atom   51 type  3   force =    -0.00000368    0.00000671    0.00001268
     atom   52 type  3   force =     0.00000368   -0.00000671    0.00001268
     atom   53 type  3   force =    -0.00000127   -0.00000094   -0.00000562
     atom   54 type  3   force =    -0.00000057   -0.00000260   -0.00000949
     atom   55 type  3   force =    -0.00000259   -0.00000655    0.00000996
     atom   56 type  3   force =     0.00000259    0.00000655    0.00000996
     atom   57 type  3   force =     0.00000057    0.00000260   -0.00000949
     atom   58 type  3   force =     0.00000127    0.00000094   -0.00000562
     atom   59 type  3   force =     0.00000094   -0.00000127   -0.00000562
     atom   60 type  3   force =     0.00000260   -0.00000057   -0.00000949
     atom   61 type  6   force =     0.00000000    0.00000000    0.00002938
     atom   62 type  6   force =     0.00000000   -0.00000000   -0.00002553
     atom   63 type  4   force =     0.00000147    0.00001507    0.00000712
     atom   64 type  4   force =    -0.00000147   -0.00001507    0.00000712
     atom   65 type  4   force =     0.00000669   -0.00000049   -0.00000827
     atom   66 type  4   force =    -0.00001507    0.00000147    0.00000712
     atom   67 type  4   force =     0.00001507   -0.00000147    0.00000712
     atom   68 type  4   force =     0.00000049    0.00000669   -0.00000827
     atom   69 type  4   force =    -0.00000049   -0.00000669   -0.00000827
     atom   70 type  4   force =    -0.00000669    0.00000049   -0.00000827

     Total force =     0.070528     Total SCF correction =     0.000094

     entering subroutine stress ...

          total   stress  (Ry/bohr**3)                   (kbar)     P=   11.11
   0.00001930   0.00000000   0.00000000          2.84      0.00      0.00
   0.00000000   0.00001930   0.00000000          0.00      2.84      0.00
   0.00000000   0.00000000   0.00018807          0.00      0.00     27.67

     kinetic stress (kbar)   7573.05      0.00      0.00
                                0.00   7573.05      0.00
                                0.00      0.00   7703.65

     local   stress (kbar)  -8335.89      0.00     -0.00
                                0.00  -8335.89      0.00
                               -0.00      0.00  -7073.36

     nonloc. stress (kbar)   3262.41      0.00      0.00
                                0.00   3262.41      0.00
                                0.00      0.00   3260.78

     hartree stress (kbar)   3511.46      0.00      0.00
                                0.00   3511.46     -0.00
                                0.00     -0.00   3132.24

     exc-cor stress (kbar)    626.79     -0.00      0.00
                               -0.00    626.79     -0.00
                                0.00     -0.00    625.25

     corecor stress (kbar)  -2742.62      0.00     -0.00
                                0.00  -2742.62      0.00
                               -0.00      0.00  -2759.10

     ewald   stress (kbar)  -3892.37      0.00      0.00
                                0.00  -3892.37     -0.00
                                0.00     -0.00  -4861.79

     hubbard stress (kbar)      0.00      0.00      0.00
                                0.00      0.00      0.00
                                0.00      0.00      0.00

     london  stress (kbar)      0.00      0.00      0.00
                                0.00      0.00      0.00
                                0.00      0.00      0.00

     XDM     stress (kbar)      0.00      0.00      0.00
                                0.00      0.00      0.00
                                0.00      0.00      0.00

     dft-nl  stress (kbar)      0.00      0.00      0.00
                                0.00      0.00      0.00
                                0.00      0.00      0.00

     TS-vdW  stress (kbar)      0.00      0.00      0.00
                                0.00      0.00      0.00
                                0.00      0.00      0.00

     number of scf cycles    =  50
     number of bfgs steps    =  49

     energy   old            =   -1856.9205729622 Ry
     energy   new            =   -1856.9290397512 Ry

     CASE: energy  _new < energy  _old

     new trust radius        =       0.1469164999 bohr
     new conv_thr            =       0.0000000130 Ry

ATOMIC_POSITIONS (crystal)
C        0.158684441   0.308074507   0.079731168
C       -0.158684441  -0.308074507   0.079731168
C        0.191973530   0.658846121   0.579680591
C       -0.308074507   0.158684441   0.079731168
C        0.308074507  -0.158684441   0.079731168
C        0.341153879   0.191973530   0.579680591
C        0.658846121   0.808026470   0.579680591
C        0.808026470   0.341153879   0.579680591
Cl       0.000000000   0.000000000  -0.313496686
Cl       0.000000000   0.000000000   0.302984951
Cl       0.500000000   0.500000000   0.186779508
Cl       0.500000000   0.500000000   0.802788681
H        0.025188927   0.662857759   0.440860127
H        0.021632694   0.791501249   0.581924737
H        0.162940096   0.474930642  -0.059332757
H       -0.162940096  -0.474930642  -0.059332757
H       -0.205456329   0.211810519  -0.235222541
H        0.205456329  -0.211810519  -0.235222541
H        0.211810519   0.205456329  -0.235222541
H       -0.211810519  -0.205456329  -0.235222541
H        0.158819603   0.833955151   0.239230870
H        0.166044849   0.158819603   0.239230870
H        0.208498751   0.021632694   0.581924737
H        0.291481575   0.478152012   0.081875110
H       -0.291481575  -0.478152012   0.081875110
H        0.334088719   0.341157032  -0.260989661
H       -0.334088719  -0.341157032  -0.260989661
H       -0.341157032   0.334088719  -0.260989661
H        0.341157032  -0.334088719  -0.260989661
H        0.288070661   0.294441483   0.264963596
H        0.294441483   0.711929339   0.264963596
H        0.337142241   0.025188927   0.440860127
H       -0.478152012   0.291481575   0.081875110
H        0.478152012  -0.291481575   0.081875110
H       -0.474930642   0.162940096  -0.059332757
H        0.474930642  -0.162940096  -0.059332757
H        0.662857759   0.974811073   0.440860127
H        0.705558517   0.288070661   0.264963596
H        0.711929339   0.705558517   0.264963596
H        0.791501249   0.978367306   0.581924737
H        0.833955151   0.841180397   0.239230870
H        0.841180397   0.166044849   0.239230870
H        0.978367306   0.208498751   0.581924737
H        0.974811073   0.337142241   0.440860127
N        0.063510440   0.700088473   0.538739045
N        0.200084106   0.436629859   0.038652800
N       -0.200084106  -0.436629859   0.038652800
N        0.212573116   0.248330923   0.200844955
N       -0.212573116  -0.248330923   0.200844955
N        0.251571898   0.712444979   0.700922057
N       -0.248330923   0.212573116   0.200844955
N        0.248330923  -0.212573116   0.200844955
N        0.287555021   0.251571898   0.700922057
N        0.299911527   0.063510440   0.538739045
N        0.436629859  -0.200084106   0.038652800
N       -0.436629859   0.200084106   0.038652800
N        0.700088473   0.936489560   0.538739045
N        0.712444979   0.748428102   0.700922057
N        0.748428102   0.287555021   0.700922057
N        0.936489560   0.299911527   0.538739045
Ni       0.000000000   0.000000000   0.025708681
Ni       0.500000000   0.500000000   0.525765519
S        0.030564669   0.227305403  -0.024823611
S       -0.030564669  -0.227305403  -0.024823611
S        0.272683284   0.530551279   0.475210850
S       -0.227305403   0.030564669  -0.024823611
S        0.227305403  -0.030564669  -0.024823611
S        0.469448721   0.272683284   0.475210850
S        0.530551279   0.727316716   0.475210850
S        0.727316716   0.469448721   0.475210850

     Writing output data file ec70.n8.save
     NEW-OLD atomic charge density approx. for the potential

     Writing output data file ec70.n8.save

     General routines

     Parallel routines

     PAW routines

   This run was terminated on:  18:26:25   5Feb2016

   JOB DONE.