     Program PWSCF v.5.3.0 (svn rev. 11974) starts on 25Feb2016 at  4:41:51

     Current dimensions of program PWSCF are:
     Max number of different atomic species (ntypx) = 10
     Max number of k-points (npk) =  40000
     Max angular momentum in pseudopotentials (lmaxx) =  3

     gamma-point specific algorithms are used

     Subspace diagonalization in iterative solution of the eigenvalue problem:
     a serial algorithm will be used

     Found symmetry operation: I + ( -0.5000  0.0000  0.5000)
     This is a supercell, fractional translations are disabled

     bravais-lattice index     =            0
     lattice parameter (alat)  =       1.8897  a.u.
     unit-cell volume          =    6863.9152 (a.u.)^3
     number of atoms/cell      =           84
     number of atomic types    =            5
     number of electrons       =       292.00
     number of Kohn-Sham states=          175
     kinetic-energy cutoff     =     100.0000  Ry
     charge density cutoff     =     800.0000  Ry
     convergence threshold     =      1.0E-07
     mixing beta               =       0.7000
     number of iterations used =            8  plain     mixing
     Exchange-correlation      =  SLA  PW   PBX  PBC ( 1  4  3  4 0 0)
     nstep                     =          200

     celldm(1)=   1.889726  celldm(2)=   0.000000  celldm(3)=   0.000000
     celldm(4)=   0.000000  celldm(5)=   0.000000  celldm(6)=   0.000000

     crystal axes: (cart. coord. in units of alat)
               a(1) = (   7.209000   0.000000   0.000000 )
               a(2) = (   0.000000   7.272000   0.000000 )
               a(3) = (   0.000000   0.000000  19.402000 )

     reciprocal axes: (cart. coord. in units 2 pi/alat)
               b(1) = (  0.138715  0.000000  0.000000 )
               b(2) = (  0.000000  0.137514  0.000000 )
               b(3) = (  0.000000  0.000000  0.051541 )

     PseudoPot. # 1 for Cl read from file:
     ../mn-pseudo/Cl.pbe-tm-gipaw.UPF
     MD5 check sum: 6263502ce953d769893a136fffc16e2a
     Pseudo is Norm-conserving, Zval =  7.0
     Generated by new atomic code, or converted to UPF format
     Using radial grid of 1157 points,  2 beta functions with:
                l(1) =   0
                l(2) =   1

     PseudoPot. # 2 for C  read from file:
     ../mn-pseudo/C.pbe-tm-gipaw.UPF
     MD5 check sum: 6e4a9b9bc4429ee737bc22471ffa2923
     Pseudo is Norm-conserving, Zval =  4.0
     Generated by new atomic code, or converted to UPF format
     Using radial grid of 1073 points,  1 beta functions with:
                l(1) =   0

     PseudoPot. # 3 for Mn read from file:
     ../mn-pseudo/Mn.pbe-sp-van_mit-gipaw.UPF
     MD5 check sum: 9a859f16f1d963084cd6d127f9f8fa99
     Pseudo is Ultrasoft, Zval = 15.0
     Generated by new atomic code, or converted to UPF format
     Using radial grid of  859 points,  6 beta functions with:
                l(1) =   0
                l(2) =   0
                l(3) =   1
                l(4) =   1
                l(5) =   2
                l(6) =   2
     Q(r) pseudized with  8 coefficients,  rinner =    1.500   1.500   1.500
                                                       1.500   1.500

     PseudoPot. # 4 for H  read from file:
     ../mn-pseudo/H.pbe-tm-gipaw.UPF
     MD5 check sum: 39a9a69d8410949353303b9fcad9eee2
     Pseudo is Norm-conserving, Zval =  1.0
     Generated by new atomic code, or converted to UPF format
     Using radial grid of  929 points,  0 beta functions with:

     PseudoPot. # 5 for N  read from file:
     ../mn-pseudo/N.pbe-tm-gipaw.UPF
     MD5 check sum: df8943e789315a92e2ce8ab49e62f5cb
     Pseudo is Norm-conserving, Zval =  5.0
     Generated by new atomic code, or converted to UPF format
     Using radial grid of 1085 points,  1 beta functions with:
                l(1) =   0

     atomic species   valence    mass     pseudopotential
        Cl             7.00    35.45270     Cl( 1.00)
        C              4.00    12.01100     C ( 1.00)
        Mn            15.00    54.93800     Mn( 1.00)
        H              1.00     1.00790     H ( 1.00)
        N              5.00    14.00670     N ( 1.00)

      4 Sym. Ops., with inversion, found

   Cartesian axes

     site n.     atom                  positions (alat units)
         1           Cl  tau(   1) = (   1.8022500   1.8180000   0.1994526  )
         2           Cl  tau(   2) = (   0.0000000   7.0218432   2.4739490  )
         3           N   tau(   3) = (   3.6045000  -0.1228968   2.2448114  )
         4           C   tau(   4) = (   3.6045000   0.2399760   3.6378750  )
         5           H   tau(   5) = (   3.6045000  -0.9744480   2.0178080  )
         6           H   tau(   6) = (   4.0442490   0.2327040   1.9596020  )
         7           H   tau(   7) = (   3.6045000   0.9380880   3.8998020  )
         8           H   tau(   8) = (   3.0133620  -0.2617920   4.0550180  )
         9           Mn  tau(   9) = (   0.0000000   0.0000000   0.0000000  )
        10           Mn  tau(  10) = (   3.6045000   3.6360000   0.0000000  )
        11           H   tau(  11) = (   3.1647510   0.2327040   1.9596020  )
        12           H   tau(  12) = (   4.1956380  -0.2617920   4.0550180  )
        13           Cl  tau(  13) = (   5.4067500   1.8180000   0.1994526  )
        14           Cl  tau(  14) = (   5.4067500   5.4540000  19.2025474  )
        15           Cl  tau(  15) = (   1.8022500   5.4540000  19.2025474  )
        16           Cl  tau(  16) = (   0.0000000   0.2501568  16.9280510  )
        17           H   tau(  17) = (   3.0133620   3.3742080   5.6459820  )
        18           H   tau(  18) = (   4.0442490   3.8687040   7.7413980  )
        19           H   tau(  19) = (   4.1956380   3.3742080   5.6459820  )
        20           H   tau(  20) = (   3.6045000   4.5740880   5.8011980  )
        21           H   tau(  21) = (   3.1647510   3.8687040   7.7413980  )
        22           H   tau(  22) = (   3.6045000   2.6615520   7.6831920  )
        23           C   tau(  23) = (   3.6045000   3.8759760   6.0631250  )
        24           N   tau(  24) = (   3.6045000   3.5131032   7.4561886  )
        25           H   tau(  25) = (  -0.5911380   3.3742080  15.3469820  )
        26           H   tau(  26) = (   0.4397490   3.8687040  17.4423980  )
        27           H   tau(  27) = (   0.5911380   3.3742080  15.3469820  )
        28           H   tau(  28) = (   0.0000000   4.5740880  15.5021980  )
        29           H   tau(  29) = (  -0.4397490   3.8687040  17.4423980  )
        30           H   tau(  30) = (   0.0000000   2.6615520  17.3841920  )
        31           C   tau(  31) = (   0.0000000   3.8759760  15.7641250  )
        32           N   tau(  32) = (   0.0000000   3.5131032  17.1571886  )
        33           H   tau(  33) = (  -0.5911380   7.5337920   5.6459820  )
        34           H   tau(  34) = (   0.4397490   7.0392960   7.7413980  )
        35           H   tau(  35) = (   0.5911380   7.5337920   5.6459820  )
        36           H   tau(  36) = (   0.0000000   6.3339120   5.8011980  )
        37           H   tau(  37) = (  -0.4397490   7.0392960   7.7413980  )
        38           H   tau(  38) = (   0.0000000   8.2464480   7.6831920  )
        39           C   tau(  39) = (   0.0000000   7.0320240   6.0631250  )
        40           N   tau(  40) = (   0.0000000   7.3948968   7.4561886  )
        41           H   tau(  41) = (   3.0133620   7.5337920  15.3469820  )
        42           H   tau(  42) = (   4.0442490   7.0392960  17.4423980  )
        43           H   tau(  43) = (   4.1956380   7.5337920  15.3469820  )
        44           H   tau(  44) = (   3.6045000   6.3339120  15.5021980  )
        45           H   tau(  45) = (   3.1647510   7.0392960  17.4423980  )
        46           H   tau(  46) = (   3.6045000   8.2464480  17.3841920  )
        47           C   tau(  47) = (   3.6045000   7.0320240  15.7641250  )
        48           N   tau(  48) = (   3.6045000   7.3948968  17.1571886  )
        49           Cl  tau(  49) = (   0.0000000   3.3858432   7.2270510  )
        50           H   tau(  50) = (   4.1956380   3.8977920  13.7560180  )
        51           H   tau(  51) = (   3.1647510   3.4032960  11.6606020  )
        52           H   tau(  52) = (   3.0133620   3.8977920  13.7560180  )
        53           H   tau(  53) = (   3.6045000   2.6979120  13.6008020  )
        54           H   tau(  54) = (   4.0442490   3.4032960  11.6606020  )
        55           H   tau(  55) = (   3.6045000   4.6104480  11.7188080  )
        56           C   tau(  56) = (   3.6045000   3.3960240  13.3388750  )
        57           N   tau(  57) = (   3.6045000   3.7588968  11.9458114  )
        58           Cl  tau(  58) = (   0.0000000   3.8861568  12.1749490  )
        59           Cl  tau(  59) = (   3.6045000   3.3858432  16.9280510  )
        60           H   tau(  60) = (   0.5911380   3.8977920   4.0550180  )
[...]
        70           Cl  tau(  70) = (   5.4067500   5.4540000   9.5015474  )
        71           Cl  tau(  71) = (   1.8022500   5.4540000   9.5015474  )
        72           Cl  tau(  72) = (   1.8022500   1.8180000   9.9004526  )
        73           H   tau(  73) = (   0.5911380  -0.2617920  13.7560180  )
        74           H   tau(  74) = (  -0.4397490   0.2327040  11.6606020  )
        75           Mn  tau(  75) = (   0.0000000   3.6360000   9.7010000  )
        76           Mn  tau(  76) = (   3.6045000   0.0000000   9.7010000  )
        77           H   tau(  77) = (  -0.5911380  -0.2617920  13.7560180  )
        78           H   tau(  78) = (   0.0000000   0.9380880  13.6008020  )
        79           H   tau(  79) = (   0.4397490   0.2327040  11.6606020  )
        80           H   tau(  80) = (   0.0000000  -0.9744480  11.7188080  )
        81           C   tau(  81) = (   0.0000000   0.2399760  13.3388750  )
        82           N   tau(  82) = (   0.0000000  -0.1228968  11.9458114  )
        83           Cl  tau(  83) = (   3.6045000   7.0218432  12.1749490  )
        84           Cl  tau(  84) = (   5.4067500   1.8180000   9.9004526  )

     number of k points=     1  Fermi-Dirac smearing, width (Ry)=  0.0037
                       cart. coord. in units 2pi/alat
        k(    1) = (   0.0000000   0.0000000   0.0000000), wk =   2.0000000

     Largest allocated arrays     est. size (Mb)     dimensions
     Largest temporary arrays     est. size (Mb)     dimensions

     Initial potential from superposition of free atoms

     starting charge  232.21525, renormalised to  292.00000
     Starting wfc are  308 randomized atomic wfcs

     Self-consistent Calculation

     iteration #  1     ecut=   100.00 Ry     beta=0.70
     Davidson diagonalization with overlap
     ethr =  1.00E-02,  avg # of iterations =  6.0

     total energy              =     201.42833177 Ry
     Harris-Foulkes estimate   =   -1937.12705999 Ry
     estimated scf accuracy    <    2437.99521246 Ry

     iteration #  2     ecut=   100.00 Ry     beta=0.70
     Davidson diagonalization with overlap
     WARNING:     1 eigenvalues not converged in regterg
     c_bands:  1 eigenvalues not converged
[...]
        37           H   tau(  37) = (  -0.8320610   7.2376716   8.1612754  )
        38           H   tau(  38) = (   0.0000000   8.5281263   7.4233283  )
        39           C   tau(  39) = (  -0.0000000   6.6535701   6.3412456  )
        40           N   tau(  40) = (   0.0000000   7.4727048   7.5848655  )
        41           H   tau(  41) = (   2.7050450   6.8870336  15.4632892  )
        42           H   tau(  42) = (   4.4365183   7.2391364  17.8627752  )
        43           H   tau(  43) = (   4.5039550   6.8870336  15.4632892  )
        44           H   tau(  44) = (   3.6045000   5.5876758  16.3321380  )
        45           H   tau(  45) = (   2.7724817   7.2391364  17.8627752  )
        46           H   tau(  46) = (   3.6045000   8.5291335  17.1240658  )
        47           C   tau(  47) = (   3.6045000   6.6540279  16.0430124  )
        48           N   tau(  48) = (   3.6045000   7.4736530  17.2862938  )
        49           Cl  tau(  49) = (  -0.0000000   3.2697196   7.3825384  )
        50           H   tau(  50) = (   4.5039773   3.2510568  13.6401963  )
        51           H   tau(  51) = (   2.7724821   3.6031123  11.2406502  )
        52           H   tau(  52) = (   2.7050227   3.2510568  13.6401963  )
        53           H   tau(  53) = (   3.6045000   1.9517052  12.7713832  )
        54           H   tau(  54) = (   4.4365179   3.6031123  11.2406502  )
        55           H   tau(  55) = (   3.6045000   4.8931275  11.9793146  )
        56           C   tau(  56) = (   3.6045000   3.0179947  13.0604332  )
        57           N   tau(  57) = (   3.6045000   3.8376820  11.8171571  )
        58           Cl  tau(  58) = (  -0.0000000   4.0022804  12.0194616  )
        59           Cl  tau(  59) = (   3.6045000   3.2704263  17.0834987  )
        60           H   tau(  60) = (   0.8995020   3.2508463   3.9385243  )
[...]
        70           Cl  tau(  70) = (   5.4068283   5.4538074   9.3664591  )
        71           Cl  tau(  71) = (   1.8021717   5.4538074   9.3664591  )
        72           Cl  tau(  72) = (   1.8021717   1.8181926  10.0355409  )
        73           H   tau(  73) = (   0.8994735   0.3850228  13.6404409  )
        74           H   tau(  74) = (  -0.8320610   0.0343284  11.2407246  )
        75           Mn  tau(  75) = (   0.0000000   3.6360000   9.7010000  )
        76           Mn  tau(  76) = (   3.6045000   0.0000000   9.7010000  )
        77           H   tau(  77) = (  -0.8994735   0.3850228  13.6404409  )
        78           H   tau(  78) = (  -0.0000000   1.6848219  12.7722521  )
        79           H   tau(  79) = (   0.8320610   0.0343284  11.2407246  )
        80           H   tau(  80) = (  -0.0000000  -1.2561263  11.9786717  )
        81           C   tau(  81) = (   0.0000000   0.6184299  13.0607544  )
        82           N   tau(  82) = (   0.0000000  -0.2007048  11.8171345  )
        83           Cl  tau(  83) = (   3.6045000   6.9064392  12.0194549  )
        84           Cl  tau(  84) = (   5.4068283   1.8181926  10.0355409  )

     number of k points=     1  Fermi-Dirac smearing, width (Ry)=  0.0037
                       cart. coord. in units 2pi/alat
        k(    1) = (   0.0000000   0.0000000   0.0000000), wk =   2.0000000

     Largest allocated arrays     est. size (Mb)     dimensions
     Largest temporary arrays     est. size (Mb)     dimensions

     The initial density is read from file :
     ./scratch/ecut100-relax.save/charge-density.dat

     Starting wfc from file

     Self-consistent Calculation

[...]

     Threshold (ethr) on eigenvalues was too large:
     Diagonalizing with lowered threshold

     Davidson diagonalization with overlap
     ethr =  1.11E-08,  avg # of iterations =  1.0

[...]

     total energy              =   -1641.71370866 Ry
     Harris-Foulkes estimate   =   -1641.71370906 Ry
     estimated scf accuracy    <       0.00003567 Ry

     iteration #  6     ecut=   100.00 Ry     beta=0.70
     Davidson diagonalization with overlap
     ethr =  1.20E-10,  avg # of iterations =  2.0

     End of self-consistent calculation

          k = 0.0000 0.0000 0.0000 ( 57969 PWs)   bands (ev):

   -76.0436 -76.0434 -76.0433 -76.0433 -44.9169 -44.9168 -44.9168 -44.9166
   -44.8364 -44.8362 -44.8361 -44.8360 -44.7675 -44.7674 -44.7673 -44.7672
   -17.3667 -17.3645 -17.3420 -17.3397 -17.3362 -17.3359 -17.3215 -17.3213
   -12.9338 -12.9316 -12.5570 -12.5569 -12.5557 -12.5556 -12.4209 -12.4186
   -12.3735 -12.3733 -12.3279 -12.3274 -12.3259 -12.3251 -12.2665 -12.2630
   -10.7496 -10.7427 -10.6877 -10.6868 -10.6835 -10.6760 -10.6640 -10.6528
    -7.0178  -7.0175  -7.0036  -6.9949  -6.9338  -6.9271  -6.9185  -6.9182
    -6.9167  -6.9141  -6.9114  -6.8939  -6.8906  -6.8777  -6.8751  -6.8729
    -5.1448  -5.1385  -5.1356  -5.1199  -5.0631  -5.0607  -5.0296  -5.0105
    -3.4417  -3.4152  -3.3347  -3.2328  -3.1866  -3.1850  -3.1721  -3.1467
    -3.1432  -3.1377  -3.1301  -3.0702  -3.0626  -3.0517  -3.0292  -3.0203
    -2.9642  -2.9575  -1.9218  -1.9213  -1.8504  -1.8281  -1.7356  -1.6896
    -1.5593  -1.5492  -1.4631  -1.4268  -1.4071  -1.4058  -1.3356  -1.3318
    -1.2603  -1.2514  -1.2432  -1.1870  -0.9812  -0.9603  -0.6475  -0.6411
    -0.5452  -0.5448  -0.5408  -0.5407  -0.5291  -0.5066  -0.4752  -0.4746
    -0.2819  -0.2732  -0.1808  -0.1717  -0.0900  -0.0855   0.0155   0.0158
     0.0677   0.0724   0.1766   0.1775   0.2200   0.2218   0.3209   0.3313
     2.3799   2.3805   2.6857   2.6881   2.7255   2.7275   2.7330   2.7334
     2.8654   2.8661   2.9274   2.9276   3.0187   3.0188   3.2859   3.2919
     4.3131   4.3321   4.3788   4.3789   5.6275   5.9717   6.0220   6.8038
     6.8310   7.2357   7.3096   7.3809   7.4682   7.5067   7.5105   7.5179
     7.6115   7.6309   7.7256   7.9485   8.0270   8.1907   8.2018

     the Fermi energy is     2.8969 ev

!    total energy              =   -1641.71370879 Ry
     Harris-Foulkes estimate   =   -1641.71370886 Ry
     estimated scf accuracy    <       0.00000008 Ry

     The total energy is the sum of the following terms:

     one-electron contribution =   -1581.28472922 Ry
     hartree contribution      =     869.98652398 Ry
     xc contribution           =    -289.69893604 Ry
     ewald contribution        =    -640.68784095 Ry
     smearing contrib. (-TS)   =      -0.02872656 Ry

     convergence has been achieved in   6 iterations

     Forces acting on atoms (Ry/au):

     atom    1 type  1   force =     0.00000430    0.00001304    0.00001005
     atom    2 type  1   force =     0.00000000   -0.00013127    0.00001272
     atom    3 type  5   force =     0.00000000    0.00007321    0.00032568
     atom    4 type  2   force =     0.00000000    0.00051924    0.00023338
     atom    5 type  4   force =     0.00000000   -0.00016288   -0.00000893
     atom    6 type  4   force =     0.00025495    0.00061771   -0.00006953
     atom    7 type  4   force =     0.00000000   -0.00023756   -0.00024175
     atom    8 type  4   force =    -0.00015417    0.00007205    0.00005330
     atom    9 type  3   force =     0.00000000    0.00000000    0.00000000
     atom   10 type  3   force =     0.00000000    0.00000000    0.00000000
     atom   11 type  4   force =    -0.00025495    0.00061771   -0.00006953
     atom   12 type  4   force =     0.00015417    0.00007205    0.00005330
     atom   13 type  1   force =    -0.00000430    0.00001304    0.00001005
     atom   14 type  1   force =    -0.00000430   -0.00001304   -0.00001005
     atom   15 type  1   force =     0.00000430   -0.00001304   -0.00001005
     atom   16 type  1   force =     0.00000000    0.00013127   -0.00001272
     atom   17 type  4   force =    -0.00010756    0.00008597   -0.00002974
     atom   18 type  4   force =     0.00024114    0.00060495    0.00004653
     atom   19 type  4   force =     0.00010756    0.00008597   -0.00002974
     atom   20 type  4   force =     0.00000000   -0.00016450    0.00027279
     atom   21 type  4   force =    -0.00024114    0.00060495    0.00004653
     atom   22 type  4   force =     0.00000000   -0.00018590   -0.00001950
     atom   23 type  2   force =     0.00000000    0.00037128   -0.00031753
     atom   24 type  5   force =     0.00000000    0.00018128   -0.00025554
     atom   25 type  4   force =    -0.00007100    0.00009433   -0.00000118
     atom   26 type  4   force =     0.00014757    0.00055776   -0.00002173
     atom   27 type  4   force =     0.00007100    0.00009433   -0.00000118
     atom   28 type  4   force =     0.00000000   -0.00011421    0.00031022
     atom   29 type  4   force =    -0.00014757    0.00055776   -0.00002173
     atom   30 type  4   force =     0.00000000   -0.00027651   -0.00002304
     atom   31 type  2   force =     0.00000000    0.00030974   -0.00045898
     atom   32 type  5   force =     0.00000000    0.00039944    0.00002211
     atom   33 type  4   force =    -0.00008082   -0.00010807   -0.00001279
     atom   34 type  4   force =     0.00015095   -0.00057332    0.00000843
     atom   35 type  4   force =     0.00008082   -0.00010807   -0.00001279
     atom   36 type  4   force =     0.00000000    0.00012251    0.00030122
     atom   37 type  4   force =    -0.00015095   -0.00057332    0.00000843
     atom   38 type  4   force =     0.00000000    0.00028976   -0.00007933
     atom   39 type  2   force =     0.00000000   -0.00025554   -0.00042915
     atom   40 type  5   force =     0.00000000   -0.00035893   -0.00007280
     atom   41 type  4   force =    -0.00015417   -0.00007205   -0.00005330
     atom   42 type  4   force =     0.00025495   -0.00061771    0.00006953
     atom   43 type  4   force =     0.00015417   -0.00007205   -0.00005330
     atom   44 type  4   force =     0.00000000    0.00023756    0.00024175
     atom   45 type  4   force =    -0.00025495   -0.00061771    0.00006953
     atom   46 type  4   force =     0.00000000    0.00016288    0.00000893
     atom   47 type  2   force =     0.00000000   -0.00051924   -0.00023338
     atom   48 type  5   force =     0.00000000   -0.00007321   -0.00032568
     atom   49 type  1   force =     0.00000000   -0.00012010    0.00000169
     atom   50 type  4   force =     0.00010756   -0.00008597    0.00002974
     atom   51 type  4   force =    -0.00024114   -0.00060495   -0.00004653
     atom   52 type  4   force =    -0.00010756   -0.00008597    0.00002974
     atom   53 type  4   force =     0.00000000    0.00016450   -0.00027279
     atom   54 type  4   force =     0.00024114   -0.00060495   -0.00004653
     atom   55 type  4   force =     0.00000000    0.00018590    0.00001950
     atom   56 type  2   force =     0.00000000   -0.00037128    0.00031753
     atom   57 type  5   force =    -0.00000000   -0.00018128    0.00025554
     atom   58 type  1   force =     0.00000000    0.00012010   -0.00000169
     atom   59 type  1   force =     0.00000000   -0.00013517    0.00000564
     atom   60 type  4   force =     0.00007100   -0.00009433    0.00000118
[...]
     atom   70 type  1   force =    -0.00000529    0.00000502   -0.00001141
     atom   71 type  1   force =     0.00000529    0.00000502   -0.00001141
     atom   72 type  1   force =     0.00000529   -0.00000502    0.00001141
     atom   73 type  4   force =     0.00008082    0.00010807    0.00001279
     atom   74 type  4   force =    -0.00015095    0.00057332   -0.00000843
     atom   75 type  3   force =     0.00000000    0.00000000    0.00000000
     atom   76 type  3   force =     0.00000000    0.00000000    0.00000000
     atom   77 type  4   force =    -0.00008082    0.00010807    0.00001279
     atom   78 type  4   force =     0.00000000   -0.00012251   -0.00030122
     atom   79 type  4   force =     0.00015095    0.00057332   -0.00000843
     atom   80 type  4   force =     0.00000000   -0.00028976    0.00007933
     atom   81 type  2   force =     0.00000000    0.00025554    0.00042915
     atom   82 type  5   force =     0.00000000    0.00035893    0.00007280
     atom   83 type  1   force =     0.00000000   -0.00013556    0.00001455
     atom   84 type  1   force =    -0.00000529   -0.00000502    0.00001141

     Total force =     0.003360     Total SCF correction =     0.000513
     SCF correction compared to forces is large: reduce conv_thr to get better values

     entering subroutine stress ...

          total   stress  (Ry/bohr**3)                   (kbar)     P=   -6.52
  -0.00004549   0.00000000   0.00000000         -6.69      0.00      0.00
   0.00000000  -0.00008988  -0.00000008          0.00    -13.22     -0.01
   0.00000000  -0.00000008   0.00000248          0.00     -0.01      0.36

     BFGS Geometry Optimization

     bfgs converged in   1 scf cycles and   0 bfgs steps
     (criteria: energy <  1.0E-04, force <  1.0E-03)

     End of BFGS Geometry Optimization

     Final energy   =   -1641.7137087883 Ry
Begin final coordinates

ATOMIC_POSITIONS (crystal)
Cl       0.249995585   0.250010774   0.017235074
Cl       0.000000000   0.949804047   0.119505484
N        0.500000000  -0.027730059   0.109045781
C        0.500000000   0.084979665   0.173125844
H        0.500000000  -0.172873150   0.117407182
H        0.615413824   0.004519199   0.079333304
H        0.500000000   0.231617744   0.158224000
H        0.375231653   0.052938177   0.203005400
Mn       0.000000000   0.000000000   0.000000000
Mn       0.500000000   0.500000000   0.000000000
H        0.384586176   0.004519199   0.079333304
H        0.624768347   0.052938177   0.203005400
Cl       0.750004415   0.250010774   0.017235074
Cl       0.750004415   0.749989226   0.982764926
Cl       0.249995585   0.749989226   0.982764926
Cl       0.000000000   0.050195953   0.880494516
H        0.375228565   0.552934984   0.296969575
H        0.615413779   0.504522506   0.420644769
H        0.624771435   0.552934984   0.296969575
H        0.500000000   0.731613696   0.341749138
H        0.384586221   0.504522506   0.420644769
H        0.500000000   0.327127678   0.382573210
C        0.500000000   0.584984223   0.326851193
N        0.500000000   0.472265956   0.390930982
H       -0.124774859   0.552963929   0.797004211
H        0.115419910   0.504349220   0.920668808
H        0.124774859   0.552963929   0.797004211
H       -0.000000000   0.731565157   0.841820695
H       -0.115419910   0.504349220   0.920668808
H       -0.000000000   0.327017189   0.882558603
C       -0.000000000   0.584963131   0.826895220
N        0.000000000   0.472135129   0.890943818
H       -0.124770905   0.947054069   0.296956969
H        0.115419750   0.995279374   0.420640932
H        0.124770905   0.947054069   0.296956969
H       -0.000000000   0.768313822   0.341704355
H       -0.115419750   0.995279374   0.420640932
H        0.000000000   1.172734637   0.382606343
C       -0.000000000   0.914957390   0.326834634
N        0.000000000   1.027599665   0.390932146
H        0.375231653   0.947061823   0.796994600
H        0.615413824   0.995480801   0.920666696
H        0.624768347   0.947061823   0.796994600
H        0.500000000   0.768382256   0.841776000
H        0.384586176   0.995480801   0.920666696
H        0.500000000   1.172873150   0.882592818
C        0.500000000   0.915020335   0.826874156
N        0.500000000   1.027730059   0.890954219
Cl      -0.000000000   0.449631414   0.380503992
H        0.624771435   0.447065016   0.703030425
H        0.384586221   0.495477494   0.579355231
H        0.375228565   0.447065016   0.703030425
H        0.500000000   0.268386304   0.658250862
H        0.615413779   0.495477494   0.579355231
H        0.500000000   0.672872322   0.617426790
C        0.500000000   0.415015777   0.673148807
N        0.500000000   0.527734044   0.609069018
Cl      -0.000000000   0.550368586   0.619496008
Cl       0.500000000   0.449728584   0.880501944
H        0.124774859   0.447036071   0.202995789
[...]
Cl       0.750010856   0.749973510   0.482757403
Cl       0.249989144   0.749973510   0.482757403
Cl       0.249989144   0.250026490   0.517242597
H        0.124770905   0.052945931   0.703043031
H       -0.115419750   0.004720626   0.579359068
Mn       0.000000000   0.500000000   0.500000000
Mn       0.500000000   0.000000000   0.500000000
H       -0.124770905   0.052945931   0.703043031
H       -0.000000000   0.231686178   0.658295645
H        0.115419750   0.004720626   0.579359068
H       -0.000000000  -0.172734637   0.617393657
C        0.000000000   0.085042610   0.673165366
N        0.000000000  -0.027599665   0.609067854
Cl       0.500000000   0.949730366   0.619495665
Cl       0.750010856   0.250026490   0.517242597
End final coordinates

     Writing output data file ecut100-relax.save

     General routines

     Parallel routines

   This run was terminated on:  17:56:15  26Feb2016

   JOB DONE.